(declare-fun temp682_1 () (_ BitVec 64))
(declare-fun temp682_2 () (_ BitVec 64))
(declare-fun var1314858 () (_ BitVec 64))
(declare-fun k!0 () Bool)
(declare-fun ARGNAME_input_NAMEEND_DIM () (_ BitVec 64))
(declare-fun temp682_4 () (_ BitVec 64))
(declare-fun temp682_3 () (_ BitVec 64))
(declare-fun temp682_5 () (_ BitVec 64))
(declare-fun var1904950 () (_ BitVec 64))
(declare-fun temp682_7 () (_ BitVec 64))
(declare-fun temp682_6 () (_ BitVec 64))
(declare-fun temp682_8 () (_ BitVec 64))
(declare-fun var2429238 () (_ BitVec 64))
(declare-fun var2494785 () (_ BitVec 64))
(declare-fun temp682_10 () (_ BitVec 64))
(declare-fun temp682_9 () (_ BitVec 64))
(declare-fun temp682_11 () (_ BitVec 64))
(declare-fun var3346742 () (_ BitVec 64))
(declare-fun var3412289 () (_ BitVec 64))
(declare-fun temp682_12 () (_ BitVec 64))
(declare-fun var3938026 () (_ BitVec 64))
(declare-fun var3938010 () (_ BitVec 64))
(declare-fun var3153336 () (_ BitVec 64))
(declare-fun temp682_15 () (_ BitVec 64))
(declare-fun temp682_14 () (_ BitVec 64))
(declare-fun temp682_16 () (_ BitVec 64))
(declare-fun var4460854 () (_ BitVec 64))
(declare-fun var4526401 () (_ BitVec 64))
(declare-fun temp682_17 () (_ BitVec 64))
(declare-fun var3149668 () (_ BitVec 64))
(declare-fun temp682_19 () (_ BitVec 64))
(declare-fun temp682_18 () (_ BitVec 64))
(declare-fun temp682_21 () (_ BitVec 64))
(declare-fun temp682_20 () (_ BitVec 64))
(declare-fun temp682_23 () (_ BitVec 64))
(declare-fun temp682_22 () (_ BitVec 64))
(declare-fun temp682_25 () (_ BitVec 64))
(declare-fun temp682_24 () (_ BitVec 64))
(declare-fun temp682_27 () (_ BitVec 64))
(declare-fun temp682_26 () (_ BitVec 64))
(declare-fun temp682_29 () (_ BitVec 64))
(declare-fun temp682_28 () (_ BitVec 64))
(declare-fun temp682_31 () (_ BitVec 64))
(declare-fun temp682_30 () (_ BitVec 64))
(declare-fun temp682_33 () (_ BitVec 64))
(declare-fun temp682_32 () (_ BitVec 64))
(declare-fun temp682_35 () (_ BitVec 64))
(declare-fun temp682_34 () (_ BitVec 64))
(declare-fun temp682_37 () (_ BitVec 64))
(declare-fun temp682_36 () (_ BitVec 64))
(declare-fun temp682_38 () (_ BitVec 64))
(declare-fun var3152901 () (_ BitVec 64))
(declare-fun temp682_39 () (_ BitVec 64))
(assert (= temp682_1 #x0000000000000040))
(assert (= var1314858
   (ite (bvsgt ARGNAME_input_NAMEEND_DIM temp682_1)
        #x0000000000000001
        #x0000000000000000)))
(assert (= temp682_2 #x0000000000000000))
(assert (= var1314858 temp682_2))
(assert (= temp682_4 #x0000000000000000))
(assert (= temp682_3 temp682_4))
(assert (= temp682_5 #x0000000000000000))
(assert (= var1904950 temp682_5))
(assert (= temp682_7 #x0000000000000000))
(assert (= temp682_6 temp682_7))
(assert (= temp682_8 #x0000000000000000))
(assert (= var2429238 temp682_8))
(assert (= var2494785 var2429238))
(assert (= temp682_10 #x0000000000000000))
(assert (= temp682_9 temp682_10))
(assert (= temp682_11 #x0000000000000000))
(assert (= var3346742 temp682_11))
(assert (= var3412289 var3346742))
(assert (= temp682_12 #x0000000000000000))
(assert (= var3938026 temp682_12))
(assert (= var3938010 var3938026))
(assert (= var3153336 var3938010))
(assert (= temp682_15 #x0000000000000000))
(assert (= temp682_14 temp682_15))
(assert (= temp682_16 #x0000000000000000))
(assert (= var4460854 temp682_16))
(assert (= var4526401 var4460854))
(assert (= temp682_17 #x0000000000000001))
(assert (= var3149668 temp682_17))
(assert (= temp682_19 #x0000000000000001))
(assert (= temp682_18 temp682_19))
(assert (= temp682_21 #xffffffffffffffff))
(assert (= temp682_20 temp682_21))
(assert (= temp682_23 #x0000000000000000))
(assert (= temp682_22 temp682_23))
(assert (= temp682_25 #xffffffffffffffff))
(assert (= temp682_24 temp682_25))
(assert (= temp682_27 #x0000000000000001))
(assert (= temp682_26 temp682_27))
(assert (= temp682_29 #x0000000000000000))
(assert (= temp682_28 temp682_29))
(assert (= temp682_31 #xfffffffffffffffe))
(assert (= temp682_30 temp682_31))
(assert (= temp682_33 #x0000000000000001))
(assert (= temp682_32 temp682_33))
(assert (= temp682_35 #xffffffffffffffff))
(assert (= temp682_34 temp682_35))
(assert (= temp682_37 #x0000000000000002))
(assert (= temp682_36 temp682_37))
(assert (= temp682_38 #x0000000000000001))
(assert (distinct var3152901 temp682_38))
(assert (= temp682_39 #x0000000000000002))
(assert (distinct var3152901 temp682_39))
(model-add temp682_1 () (_ BitVec 64) #x0000000000000040)
(model-add temp682_2 () (_ BitVec 64) #x0000000000000000)
(model-add var1314858 () (_ BitVec 64) #x0000000000000000)
(model-del k!0)
(model-add ARGNAME_input_NAMEEND_DIM
           ()
           (_ BitVec 64)
           (ite (or k!0 (= #x0000000000000040 #x7fffffffffffffff))
                #x0000000000000040
                (bvadd #x0000000000000040 #x0000000000000001)))







